c WARNING: for repeatability, setting FPU to use double precision
d VARIABLES            20804        
d CONSTRAINTS          82245        
c ============================[ Problem Statistics ]=============================
c |                                                                             |
c |  Number of variables:         20804                                         |
c |  Number of clauses:           82245                                         |
c |  Parse time:                   0.01 s                                       |
c |                                                                             |
c ============================[ Search Statistics ]==============================
c | Conflicts |          ORIGINAL         |          LEARNT          | Progress |
c |           |    Vars  Clauses Literals |    Limit  Clauses Lit/Cl |          |
c ===============================================================================
c |       100 |   14905    65557   160568 |    24037      100     11 | 28.355 % |
c |       250 |   14905    65557   160568 |    26441      250     57 | 28.355 % |
c |       475 |   14905    65557   160568 |    29085      475     79 | 28.355 % |
c |       812 |   14905    65557   160568 |    31994      812     94 | 28.355 % |
c |      1318 |   14905    65557   160568 |    35193     1318    106 | 28.355 % |
c |      2077 |   14905    65557   160568 |    38712     2077    107 | 28.355 % |
c |      3216 |   14905    65557   160568 |    42584     3216    116 | 28.355 % |
c |      4924 |   14905    65557   160568 |    46842     4924    112 | 28.355 % |
c |      7486 |   14905    65557   160568 |    51526     7486    116 | 28.355 % |
c |     11330 |   14905    65557   160568 |    56679    11330    114 | 28.355 % |
c |     17096 |   14905    65557   160568 |    62347    17096    126 | 28.355 % |
c |     25745 |   14905    65557   160568 |    68581    25745    131 | 28.355 % |
c |     38719 |   14905    65557   160568 |    75440    38719    134 | 28.355 % |
c |     58180 |   14902    65543   160534 |    82984    58179    134 | 28.370 % |
c |     87372 |   14895    65510   160454 |    91282    87369    140 | 28.403 % |
c |    131161 |   14891    65491   160408 |   100410    44529    163 | 28.422 % |
c |    196845 |   14891    65491   160408 |   110451    20927    165 | 28.422 % |
c |    295371 |   14891    65491   160408 |   121497    22066    101 | 28.422 % |
c |    443160 |   14891    65491   160408 |   133646    66842    137 | 28.422 % |
c |    664843 |   14891    65491   160408 |   147011    54608    120 | 28.422 % |
c |    997368 |   14891    65491   160408 |   161712   129002    189 | 28.422 % |
c |   1496156 |   14891    65491   160408 |   177884    43233     86 | 28.422 % |
c |   2244338 |   14891    65491   160408 |   195672   142061    213 | 28.422 % |
c |   3366612 |   14891    65491   160408 |   215239   188351    148 | 28.422 % |
c ===============================================================================
c restarts              : 8190
c conflicts             : 4824003        (2692 /sec)
c decisions             : 10137946       (0.00 % random) (5658 /sec)
c propagations          : 4402095584     (2456708 /sec)
c conflict literals     : 783551506      (33.08 % deleted)
d RESTARTS             8190
d FAILURES             4824003      
d NODES                10137946     
d BACKTRACKS           10137946     
d PROPAGATIONS         4402095584   
d NOGOODSIZE           162.43 
d MEMORY               321.00 
d TIME                 1791.87 

s UNKNOWN
